35 1000
49 12  
17 59  
29 35  
38 60  
17 28  
18 43  
52 64  
34 27  
19 33  
34 53  
27 53  
32 39  
46 49  
44 14  
38 62  
29 52  
42 15  
19 48  
49 60  
39 37  
43 23  
48 61  
48 67  
25 60  
52 43  
26 39  
19 61  
45 57  
50 46  
18 16  
22 34  
48 47  
37 37  
47 38  
30 50  
